(declare-datatypes ((_tuple_2 0)) (((_tuple_2 (__f1 Int) (__f2 Int)))))
(declare-datatypes ((_enum_0 0)) (((Machine_c_reaction_0) (Machine_c_reaction_1) (NULL))))
(declare-datatypes ((_tuple_3 0)) (((_tuple_3 (__f1 Int) (__f2 Int) (__f3 Int)))))
(declare-datatypes ((_tuple_0 0)) (((_tuple_0 (__f1 Bool) (__f2 Bool)))))
(declare-datatypes ((_tuple_1 0)) (((_tuple_1 (__f1 _enum_0) (__f2 _tuple_2) (__f3 _tuple_3) (__f4 _tuple_0)))))
(declare-datatypes ((_tuple_4 0)) (((_tuple_4 (__f1 _tuple_1) (__f2 _tuple_1) (__f3 _tuple_1)))))
(declare-fun initial_2_trace () _tuple_4)
(declare-fun initial_1_start () Int)
(assert (let ((a!1 (not (__f2 (__f4 (__f2 initial_2_trace)))))
      (a!2 (<= 0 (__f1 (__f2 (__f1 initial_2_trace)))))
      (a!3 (+ 100000000 (__f1 (__f2 (__f1 initial_2_trace)))))
      (a!5 (= (__f2 (__f3 (__f2 initial_2_trace)))
              (__f2 (__f3 (__f1 initial_2_trace)))))
      (a!8 (<= 0 (__f1 (__f2 (__f2 initial_2_trace)))))
      (a!9 (+ 100000000 (__f1 (__f2 (__f2 initial_2_trace)))))
      (a!11 (not (__f2 (__f4 (__f3 initial_2_trace)))))
      (a!12 (= (__f2 (__f3 (__f3 initial_2_trace)))
               (__f2 (__f3 (__f2 initial_2_trace))))))
(let ((a!4 (and (= (__f1 (__f1 initial_2_trace)) Machine_c_reaction_0)
                (= (__f2 (__f2 initial_2_trace))
                   (ite a!2 (_tuple_2 a!3 0) (_tuple_2 (- 1) 0)))))
      (a!6 (or (__f2 (__f4 (__f2 initial_2_trace))) a!5))
      (a!7 (and (= (__f1 (__f1 initial_2_trace)) Machine_c_reaction_0)
                (= (__f2 (__f3 initial_2_trace))
                   (ite a!2 (_tuple_2 a!3 0) (_tuple_2 (- 1) 0)))))
      (a!10 (and (= (__f1 (__f2 initial_2_trace)) Machine_c_reaction_0)
                 (= (__f2 (__f3 initial_2_trace))
                    (ite a!8 (_tuple_2 a!9 0) (_tuple_2 (- 1) 0)))))
      (a!13 (or (__f2 (__f4 (__f3 initial_2_trace))) a!12)))
  (and (or a!1 a!4) a!6 (or a!7 a!10 a!11) a!13))))
(assert (let ((a!1 (>= (__f2 (__f2 (__f2 initial_2_trace))) 0))
      (a!2 (>= (__f2 (__f2 (__f3 initial_2_trace))) 0)))
  (and a!1 a!2)))
(assert (let ((a!1 (= (__f1 (__f3 (__f1 initial_2_trace))) 0))
      (a!2 (= (__f2 (__f3 (__f1 initial_2_trace))) 0))
      (a!3 (= (__f3 (__f3 (__f1 initial_2_trace))) 0))
      (a!4 (not (__f1 (__f4 (__f1 initial_2_trace)))))
      (a!5 (not (= (__f1 (__f1 initial_2_trace)) Machine_c_reaction_1)))
      (a!6 (= (__f1 (__f3 (__f2 initial_2_trace)))
              (__f1 (__f3 (__f1 initial_2_trace)))))
      (a!7 (= (__f2 (__f3 (__f2 initial_2_trace)))
              (__f2 (__f3 (__f1 initial_2_trace)))))
      (a!8 (= (__f3 (__f3 (__f2 initial_2_trace)))
              (__f3 (__f3 (__f1 initial_2_trace)))))
      (a!9 (not (__f1 (__f4 (__f2 initial_2_trace)))))
      (a!10 (not (= (__f1 (__f2 initial_2_trace)) Machine_c_reaction_1)))
      (a!11 (= (__f1 (__f3 (__f3 initial_2_trace)))
               (__f1 (__f3 (__f2 initial_2_trace)))))
      (a!12 (= (__f2 (__f3 (__f3 initial_2_trace)))
               (__f2 (__f3 (__f2 initial_2_trace)))))
      (a!13 (= (__f3 (__f3 (__f3 initial_2_trace)))
               (__f3 (__f3 (__f2 initial_2_trace)))))
      (a!14 (not (__f1 (__f4 (__f3 initial_2_trace)))))
      (a!15 (not (= (__f1 (__f3 initial_2_trace)) Machine_c_reaction_1))))
  (and (or (and a!1 a!2 a!3 a!4) a!5)
       (or (and a!6 a!7 a!8 a!9) a!10)
       (or (and a!11 a!12 a!13 a!14) a!15))))
(assert (let ((a!1 (<= (__f1 (__f2 (__f2 initial_2_trace))) initial_1_start))
      (a!2 (= (__f1 (__f2 (__f2 initial_2_trace))) initial_1_start))
      (a!3 (<= (__f2 (__f2 (__f2 initial_2_trace))) 0))
      (a!4 (<= 0 (__f1 (__f2 (__f2 initial_2_trace)))))
      (a!6 (<= (__f1 (__f2 (__f3 initial_2_trace))) initial_1_start))
      (a!7 (= (__f1 (__f2 (__f3 initial_2_trace))) initial_1_start))
      (a!8 (<= (__f2 (__f2 (__f3 initial_2_trace))) 0))
      (a!9 (<= 0 (__f1 (__f2 (__f3 initial_2_trace))))))
(let ((a!5 (or (= (__f2 (__f2 initial_2_trace)) (_tuple_2 initial_1_start 0))
               (not a!1)
               (and a!2 (not a!3))
               (and (not a!4) (<= 0 initial_1_start))))
      (a!10 (or (= (__f2 (__f3 initial_2_trace)) (_tuple_2 initial_1_start 0))
                (not a!6)
                (and a!7 (not a!8))
                (and (not a!9) (<= 0 initial_1_start)))))
  (and a!5 a!10))))
(assert (let ((a!1 (>= (__f1 (__f2 (__f2 initial_2_trace))) 0))
      (a!2 (>= (__f1 (__f2 (__f3 initial_2_trace))) 0)))
  (and a!1 a!2)))
(assert (let ((a!1 (not (= (__f1 (__f2 initial_2_trace)) NULL)))
      (a!3 (not (= (__f1 (__f3 initial_2_trace)) NULL))))
(let ((a!2 (or (= (__f3 (__f2 initial_2_trace)) (__f3 (__f1 initial_2_trace)))
               a!1))
      (a!4 (or (= (__f3 (__f3 initial_2_trace)) (__f3 (__f2 initial_2_trace)))
               a!3)))
  (and a!2 a!4))))
(assert (let ((a!1 (= (= (__f2 (__f2 initial_2_trace)) (_tuple_2 0 0))
              (= (__f1 (__f2 initial_2_trace)) Machine_c_reaction_0)))
      (a!2 (= (= (__f2 (__f3 initial_2_trace)) (_tuple_2 0 0))
              (= (__f1 (__f3 initial_2_trace)) Machine_c_reaction_0))))
  (and a!1 a!2)))
(assert (let ((a!1 (not (= (__f2 (__f1 initial_2_trace)) (__f2 (__f2 initial_2_trace)))))
      (a!2 (not (= (__f1 (__f1 initial_2_trace)) (__f1 (__f2 initial_2_trace)))))
      (a!3 (not (= (__f2 (__f1 initial_2_trace)) (__f2 (__f3 initial_2_trace)))))
      (a!4 (not (= (__f1 (__f1 initial_2_trace)) (__f1 (__f3 initial_2_trace)))))
      (a!5 (not (= (__f2 (__f2 initial_2_trace)) (__f2 (__f1 initial_2_trace)))))
      (a!6 (not (= (__f1 (__f2 initial_2_trace)) (__f1 (__f1 initial_2_trace)))))
      (a!7 (not (= (__f2 (__f2 initial_2_trace)) (__f2 (__f3 initial_2_trace)))))
      (a!8 (not (= (__f1 (__f2 initial_2_trace)) (__f1 (__f3 initial_2_trace)))))
      (a!9 (not (= (__f2 (__f3 initial_2_trace)) (__f2 (__f1 initial_2_trace)))))
      (a!10 (not (= (__f1 (__f3 initial_2_trace)) (__f1 (__f1 initial_2_trace)))))
      (a!11 (not (= (__f2 (__f3 initial_2_trace)) (__f2 (__f2 initial_2_trace)))))
      (a!12 (not (= (__f1 (__f3 initial_2_trace)) (__f1 (__f2 initial_2_trace))))))
  (and (or a!1 a!2)
       (or a!3 a!4)
       (or a!5 a!6)
       (or a!7 a!8)
       (or a!9 a!10)
       (or a!11 a!12))))
(assert (let ((a!1 (not (= (__f1 (__f2 initial_2_trace)) NULL))))
  (or a!1 (= (__f1 (__f3 initial_2_trace)) NULL))))
(assert (let ((a!1 (and (= (__f1 (__f1 initial_2_trace)) Machine_c_reaction_0)
                (= (__f2 (__f1 initial_2_trace)) (_tuple_2 0 0))))
      (a!2 (and (= (__f1 (__f2 initial_2_trace)) Machine_c_reaction_0)
                (= (__f2 (__f2 initial_2_trace)) (_tuple_2 0 0))))
      (a!3 (and (= (__f1 (__f3 initial_2_trace)) Machine_c_reaction_0)
                (= (__f2 (__f3 initial_2_trace)) (_tuple_2 0 0)))))
  (or a!1 a!2 a!3 (not (= initial_1_start 0)))))
(assert (let ((a!1 (and (= (__f1 (__f1 initial_2_trace)) Machine_c_reaction_0)
                (= (__f1 (__f1 initial_2_trace)) Machine_c_reaction_1)))
      (a!2 (<= (__f1 (__f2 (__f1 initial_2_trace)))
               (__f1 (__f2 (__f2 initial_2_trace)))))
      (a!3 (= (__f1 (__f2 (__f2 initial_2_trace)))
              (__f1 (__f2 (__f1 initial_2_trace)))))
      (a!4 (<= (__f2 (__f2 (__f1 initial_2_trace)))
               (__f2 (__f2 (__f2 initial_2_trace)))))
      (a!5 (<= 0 (__f1 (__f2 (__f2 initial_2_trace)))))
      (a!6 (<= 0 (__f1 (__f2 (__f1 initial_2_trace)))))
      (a!7 (and (= (__f2 (__f2 initial_2_trace)) (__f2 (__f1 initial_2_trace)))
                (= (__f1 (__f2 initial_2_trace)) Machine_c_reaction_0)
                (= (__f1 (__f1 initial_2_trace)) Machine_c_reaction_1)))
      (a!9 (and (= (__f1 (__f2 initial_2_trace)) Machine_c_reaction_0)
                (= (__f1 (__f2 initial_2_trace)) Machine_c_reaction_1)))
      (a!10 (<= (__f1 (__f2 (__f1 initial_2_trace)))
                (__f1 (__f2 (__f3 initial_2_trace)))))
      (a!11 (= (__f1 (__f2 (__f3 initial_2_trace)))
               (__f1 (__f2 (__f1 initial_2_trace)))))
      (a!12 (<= (__f2 (__f2 (__f1 initial_2_trace)))
                (__f2 (__f2 (__f3 initial_2_trace)))))
      (a!13 (<= 0 (__f1 (__f2 (__f3 initial_2_trace)))))
      (a!14 (and (= (__f2 (__f3 initial_2_trace)) (__f2 (__f1 initial_2_trace)))
                 (= (__f1 (__f3 initial_2_trace)) Machine_c_reaction_0)
                 (= (__f1 (__f1 initial_2_trace)) Machine_c_reaction_1)))
      (a!16 (<= (__f1 (__f2 (__f2 initial_2_trace)))
                (__f1 (__f2 (__f3 initial_2_trace)))))
      (a!17 (= (__f1 (__f2 (__f3 initial_2_trace)))
               (__f1 (__f2 (__f2 initial_2_trace)))))
      (a!18 (<= (__f2 (__f2 (__f2 initial_2_trace)))
                (__f2 (__f2 (__f3 initial_2_trace)))))
      (a!19 (and (= (__f2 (__f3 initial_2_trace)) (__f2 (__f2 initial_2_trace)))
                 (= (__f1 (__f3 initial_2_trace)) Machine_c_reaction_0)
                 (= (__f1 (__f2 initial_2_trace)) Machine_c_reaction_1)))
      (a!21 (and (= (__f1 (__f3 initial_2_trace)) Machine_c_reaction_0)
                 (= (__f1 (__f3 initial_2_trace)) Machine_c_reaction_1))))
(let ((a!8 (not (or (not a!2) (and a!3 (not a!4)) (and a!5 (not a!6)) a!7)))
      (a!15 (not (or (not a!10) (and a!11 (not a!12)) (and a!13 (not a!6)) a!14)))
      (a!20 (not (or (not a!16) (and a!17 (not a!18)) (and a!13 (not a!5)) a!19))))
  (and (not a!1) a!8 (not a!9) a!15 a!20 (not a!21)))))
(assert (let ((a!1 (= (__f2 (__f3 (__f2 initial_2_trace))) 0))
      (a!2 (<= 0 (__f1 (__f2 (__f1 initial_2_trace)))))
      (a!3 (+ 100000000 (__f1 (__f2 (__f1 initial_2_trace)))))
      (a!6 (= (__f2 (__f3 (__f3 initial_2_trace))) 0))
      (a!9 (not (= (__f1 (__f2 initial_2_trace)) NULL)))
      (a!13 (<= 0 (__f1 (__f2 (__f2 initial_2_trace)))))
      (a!15 (not (= (__f1 (__f3 initial_2_trace)) NULL)))
      (a!19 (<= 0 (__f1 (__f2 (__f3 initial_2_trace)))))
      (a!21 (= (__f3 (__f3 (__f1 initial_2_trace))) 1))
      (a!22 (= (__f3 (__f3 (__f1 initial_2_trace))) 0))
      (a!23 (= (__f1 (__f3 (__f1 initial_2_trace))) 1))
      (a!25 (not (= (__f1 (__f1 initial_2_trace)) Machine_c_reaction_0)))
      (a!27 (+ 100000000 (__f1 (__f2 (__f2 initial_2_trace)))))
      (a!35 (= (__f3 (__f3 (__f2 initial_2_trace))) 1))
      (a!36 (= (__f3 (__f3 (__f2 initial_2_trace))) 0))
      (a!37 (= (__f1 (__f3 (__f2 initial_2_trace))) 1))
      (a!39 (not (= (__f1 (__f2 initial_2_trace)) Machine_c_reaction_0)))
      (a!41 (= (__f1 (__f3 (__f3 initial_2_trace))) 1))
      (a!43 (= (__f3 (__f3 (__f3 initial_2_trace))) 0))
      (a!44 (not (= (__f1 (__f3 initial_2_trace)) Machine_c_reaction_0))))
(let ((a!4 (= (__f2 (__f2 initial_2_trace))
              (ite a!2 (_tuple_2 a!3 0) (_tuple_2 (- 1) 0))))
      (a!7 (= (__f2 (__f3 initial_2_trace))
              (ite a!2 (_tuple_2 a!3 0) (_tuple_2 (- 1) 0))))
      (a!10 (<= (__f1 (ite a!2 (_tuple_2 a!3 0) (_tuple_2 (- 1) 0)))
                (__f1 (__f2 (__f2 initial_2_trace)))))
      (a!11 (= (__f1 (__f2 (__f2 initial_2_trace)))
               (__f1 (ite a!2 (_tuple_2 a!3 0) (_tuple_2 (- 1) 0)))))
      (a!12 (<= (__f2 (ite a!2 (_tuple_2 a!3 0) (_tuple_2 (- 1) 0)))
                (__f2 (__f2 (__f2 initial_2_trace)))))
      (a!14 (<= 0 (__f1 (ite a!2 (_tuple_2 a!3 0) (_tuple_2 (- 1) 0)))))
      (a!16 (<= (__f1 (ite a!2 (_tuple_2 a!3 0) (_tuple_2 (- 1) 0)))
                (__f1 (__f2 (__f3 initial_2_trace)))))
      (a!17 (= (__f1 (__f2 (__f3 initial_2_trace)))
               (__f1 (ite a!2 (_tuple_2 a!3 0) (_tuple_2 (- 1) 0)))))
      (a!18 (<= (__f2 (ite a!2 (_tuple_2 a!3 0) (_tuple_2 (- 1) 0)))
                (__f2 (__f2 (__f3 initial_2_trace)))))
      (a!24 (and (__f1 (__f4 (__f1 initial_2_trace))) a!23))
      (a!28 (= (__f2 (__f3 initial_2_trace))
               (ite a!13 (_tuple_2 a!27 0) (_tuple_2 (- 1) 0))))
      (a!30 (<= (__f1 (ite a!13 (_tuple_2 a!27 0) (_tuple_2 (- 1) 0)))
                (__f1 (__f2 (__f3 initial_2_trace)))))
      (a!31 (= (__f1 (__f2 (__f3 initial_2_trace)))
               (__f1 (ite a!13 (_tuple_2 a!27 0) (_tuple_2 (- 1) 0)))))
      (a!32 (<= (__f2 (ite a!13 (_tuple_2 a!27 0) (_tuple_2 (- 1) 0)))
                (__f2 (__f2 (__f3 initial_2_trace)))))
      (a!33 (<= 0 (__f1 (ite a!13 (_tuple_2 a!27 0) (_tuple_2 (- 1) 0)))))
      (a!38 (and (__f1 (__f4 (__f2 initial_2_trace))) a!37))
      (a!42 (and (__f1 (__f4 (__f3 initial_2_trace))) a!41)))
(let ((a!5 (and (__f2 (__f4 (__f2 initial_2_trace))) a!1 a!4))
      (a!8 (and (__f2 (__f4 (__f3 initial_2_trace))) a!6 a!7))
      (a!20 (and a!9
                 (or a!4 (not a!10) (and a!11 (not a!12)) (and a!13 (not a!14)))
                 a!15
                 (or a!7 (not a!16) (and a!17 (not a!18)) (and a!19 (not a!14)))))
      (a!29 (and (__f2 (__f4 (__f3 initial_2_trace))) a!6 a!28))
      (a!34 (and a!15
                 (or a!28
                     (not a!30)
                     (and a!31 (not a!32))
                     (and a!19 (not a!33))))))
(let ((a!26 (or (and (or a!5 a!8 a!20 (not a!21)) (or (not a!22) a!24)) a!25))
      (a!40 (or (and (or a!29 a!34 (not a!35)) (or (not a!36) a!38)) a!39)))
  (and a!26 a!40 (or a!42 (not a!43) a!44)))))))
(assert (let ((a!1 (= (__f2 (__f4 (__f2 initial_2_trace)))
              (= (__f1 (__f2 initial_2_trace)) Machine_c_reaction_1)))
      (a!2 (= (__f2 (__f4 (__f3 initial_2_trace)))
              (= (__f1 (__f3 initial_2_trace)) Machine_c_reaction_1))))
  (and a!1 a!2)))
(assert (let ((a!1 (<= 0 (__f1 (__f2 (__f1 initial_2_trace)))))
      (a!2 (+ 100000000 (__f1 (__f2 (__f1 initial_2_trace)))))
      (a!12 (<= 0 (__f1 (__f2 (__f2 initial_2_trace)))))
      (a!18 (<= 0 (__f1 (__f2 (__f3 initial_2_trace)))))
      (a!21 (= (__f3 (__f3 (__f1 initial_2_trace))) 1))
      (a!23 (<= (__f1 (__f2 (__f1 initial_2_trace))) initial_1_start))
      (a!24 (= (__f1 (__f2 (__f1 initial_2_trace))) initial_1_start))
      (a!25 (<= (__f2 (__f2 (__f1 initial_2_trace))) 0))
      (a!27 (+ 100000000 (__f1 (__f2 (__f2 initial_2_trace)))))
      (a!39 (= (__f3 (__f3 (__f2 initial_2_trace))) 1))
      (a!41 (<= (__f1 (__f2 (__f2 initial_2_trace))) initial_1_start))
      (a!42 (= (__f1 (__f2 (__f2 initial_2_trace))) initial_1_start))
      (a!43 (<= (__f2 (__f2 (__f2 initial_2_trace))) 0))
      (a!46 (= (__f3 (__f3 (__f3 initial_2_trace))) 1))
      (a!48 (+ 100000000 (__f1 (__f2 (__f3 initial_2_trace)))))
      (a!55 (<= (__f1 (__f2 (__f3 initial_2_trace))) initial_1_start))
      (a!56 (= (__f1 (__f2 (__f3 initial_2_trace))) initial_1_start))
      (a!57 (<= (__f2 (__f2 (__f3 initial_2_trace))) 0)))
(let ((a!3 (<= (__f1 (ite a!1 (_tuple_2 a!2 0) (_tuple_2 (- 1) 0)))
               (__f1 (__f2 (__f1 initial_2_trace)))))
      (a!4 (= (__f1 (__f2 (__f1 initial_2_trace)))
              (__f1 (ite a!1 (_tuple_2 a!2 0) (_tuple_2 (- 1) 0)))))
      (a!5 (<= (__f2 (ite a!1 (_tuple_2 a!2 0) (_tuple_2 (- 1) 0)))
               (__f2 (__f2 (__f1 initial_2_trace)))))
      (a!6 (<= 0 (__f1 (ite a!1 (_tuple_2 a!2 0) (_tuple_2 (- 1) 0)))))
      (a!9 (<= (__f1 (ite a!1 (_tuple_2 a!2 0) (_tuple_2 (- 1) 0)))
               (__f1 (__f2 (__f2 initial_2_trace)))))
      (a!10 (= (__f1 (__f2 (__f2 initial_2_trace)))
               (__f1 (ite a!1 (_tuple_2 a!2 0) (_tuple_2 (- 1) 0)))))
      (a!11 (<= (__f2 (ite a!1 (_tuple_2 a!2 0) (_tuple_2 (- 1) 0)))
                (__f2 (__f2 (__f2 initial_2_trace)))))
      (a!15 (<= (__f1 (ite a!1 (_tuple_2 a!2 0) (_tuple_2 (- 1) 0)))
                (__f1 (__f2 (__f3 initial_2_trace)))))
      (a!16 (= (__f1 (__f2 (__f3 initial_2_trace)))
               (__f1 (ite a!1 (_tuple_2 a!2 0) (_tuple_2 (- 1) 0)))))
      (a!17 (<= (__f2 (ite a!1 (_tuple_2 a!2 0) (_tuple_2 (- 1) 0)))
                (__f2 (__f2 (__f3 initial_2_trace)))))
      (a!22 (and (= (__f1 (__f1 initial_2_trace)) Machine_c_reaction_0) a!21))
      (a!26 (or (= (__f2 (__f1 initial_2_trace)) (_tuple_2 initial_1_start 0))
                (not a!23)
                (and a!24 (not a!25))
                (and (not a!1) (<= 0 initial_1_start))))
      (a!28 (<= (__f1 (ite a!12 (_tuple_2 a!27 0) (_tuple_2 (- 1) 0)))
                (__f1 (__f2 (__f2 initial_2_trace)))))
      (a!29 (= (__f1 (__f2 (__f2 initial_2_trace)))
               (__f1 (ite a!12 (_tuple_2 a!27 0) (_tuple_2 (- 1) 0)))))
      (a!30 (<= (__f2 (ite a!12 (_tuple_2 a!27 0) (_tuple_2 (- 1) 0)))
                (__f2 (__f2 (__f2 initial_2_trace)))))
      (a!31 (<= 0 (__f1 (ite a!12 (_tuple_2 a!27 0) (_tuple_2 (- 1) 0)))))
      (a!34 (<= (__f1 (ite a!12 (_tuple_2 a!27 0) (_tuple_2 (- 1) 0)))
                (__f1 (__f2 (__f3 initial_2_trace)))))
      (a!35 (= (__f1 (__f2 (__f3 initial_2_trace)))
               (__f1 (ite a!12 (_tuple_2 a!27 0) (_tuple_2 (- 1) 0)))))
      (a!36 (<= (__f2 (ite a!12 (_tuple_2 a!27 0) (_tuple_2 (- 1) 0)))
                (__f2 (__f2 (__f3 initial_2_trace)))))
      (a!40 (and (= (__f1 (__f2 initial_2_trace)) Machine_c_reaction_0) a!39))
      (a!44 (or (= (__f2 (__f2 initial_2_trace)) (_tuple_2 initial_1_start 0))
                (not a!41)
                (and a!42 (not a!43))
                (and (not a!12) (<= 0 initial_1_start))))
      (a!47 (and (= (__f1 (__f3 initial_2_trace)) Machine_c_reaction_0) a!46))
      (a!49 (<= (__f1 (ite a!18 (_tuple_2 a!48 0) (_tuple_2 (- 1) 0)))
                (__f1 (__f2 (__f3 initial_2_trace)))))
      (a!50 (= (__f1 (__f2 (__f3 initial_2_trace)))
               (__f1 (ite a!18 (_tuple_2 a!48 0) (_tuple_2 (- 1) 0)))))
      (a!51 (<= (__f2 (ite a!18 (_tuple_2 a!48 0) (_tuple_2 (- 1) 0)))
                (__f2 (__f2 (__f3 initial_2_trace)))))
      (a!52 (<= 0 (__f1 (ite a!18 (_tuple_2 a!48 0) (_tuple_2 (- 1) 0)))))
      (a!58 (or (= (__f2 (__f3 initial_2_trace)) (_tuple_2 initial_1_start 0))
                (not a!55)
                (and a!56 (not a!57))
                (and (not a!18) (<= 0 initial_1_start)))))
(let ((a!7 (or (= (__f2 (__f1 initial_2_trace))
                  (ite a!1 (_tuple_2 a!2 0) (_tuple_2 (- 1) 0)))
               (not a!3)
               (and a!4 (not a!5))
               (and a!1 (not a!6))))
      (a!13 (or (= (__f2 (__f2 initial_2_trace))
                   (ite a!1 (_tuple_2 a!2 0) (_tuple_2 (- 1) 0)))
                (not a!9)
                (and a!10 (not a!11))
                (and a!12 (not a!6))))
      (a!19 (or (= (__f2 (__f3 initial_2_trace))
                   (ite a!1 (_tuple_2 a!2 0) (_tuple_2 (- 1) 0)))
                (not a!15)
                (and a!16 (not a!17))
                (and a!18 (not a!6))))
      (a!32 (or (= (__f2 (__f2 initial_2_trace))
                   (ite a!12 (_tuple_2 a!27 0) (_tuple_2 (- 1) 0)))
                (not a!28)
                (and a!29 (not a!30))
                (and a!12 (not a!31))))
      (a!37 (or (= (__f2 (__f3 initial_2_trace))
                   (ite a!12 (_tuple_2 a!27 0) (_tuple_2 (- 1) 0)))
                (not a!34)
                (and a!35 (not a!36))
                (and a!18 (not a!31))))
      (a!53 (or (= (__f2 (__f3 initial_2_trace))
                   (ite a!18 (_tuple_2 a!48 0) (_tuple_2 (- 1) 0)))
                (not a!49)
                (and a!50 (not a!51))
                (and a!18 (not a!52)))))
(let ((a!8 (and (= (__f1 (__f1 initial_2_trace)) Machine_c_reaction_1) a!7))
      (a!14 (and (= (__f1 (__f2 initial_2_trace)) Machine_c_reaction_1) a!13))
      (a!20 (and (= (__f1 (__f3 initial_2_trace)) Machine_c_reaction_1) a!19))
      (a!33 (and (= (__f1 (__f2 initial_2_trace)) Machine_c_reaction_1) a!32))
      (a!38 (and (= (__f1 (__f3 initial_2_trace)) Machine_c_reaction_1) a!37))
      (a!54 (and (= (__f1 (__f3 initial_2_trace)) Machine_c_reaction_1) a!53)))
(let ((a!45 (not (and (or a!8 a!14 a!20 (not a!22))
                      a!26
                      (or a!33 a!38 (not a!40))
                      a!44))))
(let ((a!59 (or a!45 (and (or (not a!47) a!54) a!58))))
  (not a!59))))))))


(check-sat)
(get-info :all-statistics)
(get-model)
